p cnf 178 495
-125 -106 0
125 106 0
-3 28 -34 -44 0
3 -125 4 -15 0
3 4 -10 -15 0
-3 15 0
-3 -4 0
-3 125 10 0
4 135 -5 0
4 -135 -7 0
4 135 -6 0
-4 -135 7 0
-4 135 5 6 0
5 -114 120 126 127 0
-5 -127 0
-5 -126 0
-5 114 0
-5 -120 0
6 113 115 -123 -124 0
-6 -113 0
-6 124 0
-6 123 0
-6 -115 0
7 134 -8 0
7 -132 134 -9 0
-7 -134 0
-7 8 9 0
-7 132 8 0
8 -116 117 129 0
-8 116 0
-8 -129 0
-8 -117 0
9 111 -120 0
-9 -111 0
-9 120 0
10 11 14 0
10 130 11 0
10 -117 11 0
-10 -11 0
-10 117 -130 -14 0
11 -123 -12 0
11 -123 128 -13 0
-11 123 0
-11 -128 12 0
-11 12 13 0
12 -112 120 -126 0
-12 112 0
-12 -120 0
-12 126 0
13 113 -115 0
-13 -113 0
-13 115 0
14 -118 -129 0
-14 118 0
-14 129 0
15 -134 -16 24 0
15 -16 -22 24 0
-15 16 0
-15 -24 0
-15 134 22 0
16 123 17 0
16 17 20 21 0
-16 -17 0
-16 -123 -21 0
-16 -123 -20 0
17 -133 -18 0
17 -133 -19 0
-17 133 0
-17 18 19 0
18 117 120 -125 -126 0
-18 -117 0
-18 126 0
-18 125 0
-18 -120 0
19 -111 -118 122 129 0
-19 118 0
-19 -129 0
-19 111 0
-19 -122 0
20 -119 -120 127 -134 0
-20 134 0
-20 119 0
-20 120 0
-20 -127 0
21 115 121 -122 133 0
-21 -115 0
-21 -133 0
-21 122 0
-21 -121 0
22 23 0
22 123 0
22 -131 132 0
-22 -123 131 -23 0
-22 -123 -132 -23 0
23 113 121 0
-23 -113 0
-23 -121 0
24 135 -27 0
24 135 -25 -26 0
-24 -135 0
-24 25 27 0
-24 26 27 0
25 -114 121 0
-25 114 0
-25 -121 0
26 -123 -134 0
-26 123 0
-26 134 0
27 -111 114 -122 131 0
-27 122 0
-27 -131 0
-27 111 0
-27 -114 0
28 -116 -29 0
28 116 31 0
28 116 -30 0
-28 -116 29 0
-28 116 30 -31 0
29 -114 -132 133 135 0
-29 132 0
-29 -135 0
-29 114 0
-29 -133 0
30 -121 -124 126 134 0
-30 124 0
-30 -134 0
-30 121 0
-30 -126 0
31 -134 32 0
31 32 33 0
31 132 32 0
-31 -32 0
-31 -132 134 -33 0
32 118 125 -129 -134 0
-32 -118 0
-32 134 0
-32 129 0
-32 -125 0
33 -113 122 0
-33 113 0
-33 -122 0
34 -134 35 0
34 35 40 -41 0
-34 -35 0
-34 134 41 0
-34 134 -40 0
35 122 37 0
35 122 123 -36 0
-35 -122 0
-35 -123 -37 0
-35 36 -37 0
36 114 -127 0
-36 -114 0
-36 127 0
37 -126 38 0
37 38 39 0
37 125 38 0
-37 -38 0
-37 -125 126 -39 0
38 119 -120 124 -128 0
-38 120 0
-38 -124 0
-38 -119 0
-38 128 0
39 -115 -117 0
-39 115 0
-39 117 0
40 112 120 128 132 0
-40 -132 0
-40 -128 0
-40 -112 0
-40 -120 0
41 133 0
41 -126 42 0
41 126 43 0
-41 126 -133 -43 0
-41 -126 -133 -42 0
42 119 120 0
-42 -119 0
-42 -120 0
43 111 -119 0
-43 -111 0
-43 119 0
44 -45 -74 -79 -84 0
-44 84 0
-44 45 0
-44 79 0
-44 74 0
45 -46 60 -62 -66 0
-45 66 0
-45 46 0
-45 62 0
-45 -60 0
46 47 49 -51 -55 0
-46 -47 0
-46 55 0
-46 51 0
-46 -49 0
47 -124 -127 131 -48 0
-47 48 0
-47 124 0
-47 127 0
-47 -131 0
48 -119 -120 0
-48 119 0
-48 120 0
49 118 120 -132 -50 0
-49 -118 0
-49 50 0
-49 132 0
-49 -120 0
50 -125 126 0
-50 125 0
-50 -126 0
51 52 54 0
51 114 52 0
51 117 52 0
-51 -52 0
-51 -114 -117 -54 0
52 -122 132 134 -53 0
-52 53 0
-52 -134 0
-52 122 0
-52 -132 0
53 114 -118 0
-53 -114 0
-53 118 0
54 -129 131 -135 0
-54 129 0
-54 -131 0
-54 135 0
55 127 135 0
55 -56 -58 0
55 127 -58 0
55 135 -56 0
-55 -127 56 0
-55 -135 58 0
56 25 57 0
56 -124 57 0
56 -128 57 0
-56 -57 0
-56 124 128 -25 0
57 -112 118 -128 129 0
-57 128 0
-57 -129 0
-57 112 0
-57 -118 0
58 131 59 0
58 -120 59 0
58 14 59 0
-58 -59 0
-58 120 -131 -14 0
59 -118 -119 123 -130 0
-59 130 0
-59 118 0
-59 119 0
-59 -123 0
60 112 -120 -128 -61 0
-60 -112 0
-60 61 0
-60 128 0
-60 120 0
61 -126 -130 0
-61 126 0
-61 130 0
62 63 64 0
62 -111 64 0
62 -120 64 0
-62 -64 0
-62 111 120 -63 0
63 -123 -131 -133 0
-63 123 0
-63 131 0
-63 133 0
64 122 123 -65 0
64 -123 -124 -65 0
-64 65 0
-64 -123 124 0
-64 -122 123 0
65 113 -119 130 0
-65 -113 0
-65 119 0
-65 -130 0
66 36 -67 71 0
66 -67 71 73 0
-66 67 0
-66 -71 0
-66 -36 -73 0
67 68 70 0
67 111 68 0
67 113 68 0
-67 -68 0
-67 -111 -113 -70 0
68 112 115 -134 -69 0
-68 -112 0
-68 69 0
-68 134 0
-68 -115 0
69 -123 -132 0
-69 123 0
-69 132 0
70 128 133 134 0
-70 -128 0
-70 -134 0
-70 -133 0
71 -118 -132 -135 -72 0
-71 72 0
-71 118 0
-71 135 0
-71 132 0
72 -116 129 0
-72 116 0
-72 -129 0
73 121 -133 -135 0
-73 135 0
-73 133 0
-73 -121 0
74 -132 75 0
74 75 77 78 0
-74 -75 0
-74 132 -78 0
-74 132 -77 0
75 131 -76 0
75 125 131 -14 0
-75 -131 0
-75 -125 76 0
-75 14 76 0
76 113 121 123 -132 0
-76 132 0
-76 -123 0
-76 -113 0
-76 -121 0
77 118 119 123 124 0
-77 -124 0
-77 -123 0
-77 -118 0
-77 -119 0
78 -112 116 -124 -128 0
-78 128 0
-78 112 0
-78 124 0
-78 -116 0
79 -128 -82 0
79 135 -80 0
79 -128 135 0
79 -80 -82 0
-79 128 80 0
-79 -135 82 0
80 129 81 0
80 53 81 0
80 124 81 0
-80 -81 0
-80 -124 -129 -53 0
81 -115 -118 -123 129 0
-81 123 0
-81 -129 0
-81 115 0
-81 118 0
82 9 83 0
82 -134 83 0
82 123 83 0
-82 -83 0
-82 -123 134 -9 0
83 113 119 124 133 0
-83 -133 0
-83 -124 0
-83 -113 0
-83 -119 0
84 -128 85 -89 0
84 85 -87 -89 0
-84 89 0
-84 -85 0
-84 128 87 0
85 -134 -86 0
85 -134 -42 -61 0
-85 134 0
-85 42 86 0
-85 61 86 0
86 -112 -120 126 -131 0
-86 131 0
-86 112 0
-86 120 0
-86 -126 0
87 133 88 0
87 9 88 0
87 129 88 0
-87 -88 0
-87 -129 -133 -9 0
88 -111 115 -123 -134 0
-88 134 0
-88 111 0
-88 123 0
-88 -115 0
89 120 92 0
89 90 91 92 0
-89 -92 0
-89 -120 -91 0
-89 -120 -90 0
90 113 -128 132 -133 0
-90 128 0
-90 -132 0
-90 -113 0
-90 133 0
91 -121 -126 129 -132 0
-91 132 0
-91 121 0
-91 126 0
-91 -129 0
92 119 -93 0
92 119 -94 0
-92 -119 0
-92 93 94 0
93 -113 -124 128 132 0
-93 124 0
-93 -132 0
-93 113 0
-93 -128 0
94 121 127 130 131 0
-94 -131 0
-94 -130 0
-94 -121 0
-94 -127 0
-126 -105 0
126 105 0
124 -99 0
-124 99 0
-127 141 0
127 -141 0
134 -148 0
-134 148 0
-129 143 0
129 -143 0
135 -149 0
-135 149 0
99 -114 -138 0
99 119 -138 0
-99 138 0
-99 114 -119 0
-133 147 0
133 -147 0
-131 145 0
131 -145 0
132 -146 0
-132 146 0
-123 137 0
123 -137 0
-122 136 0
122 -136 0
130 -144 0
-130 144 0
128 -142 0
-128 142 0
105 120 140 0
105 -121 140 0
105 112 140 0
-105 -140 0
-105 -112 -120 121 0
106 107 -110 0
106 -115 -117 107 0
-106 -107 0
-106 117 110 0
-106 115 110 0
107 -139 108 0
107 -120 39 108 0
-107 -108 0
-107 139 -39 0
-107 120 139 0
108 -116 118 109 13 0
-108 -13 0
-108 -109 0
-108 116 0
-108 -118 0
109 -112 120 0
-109 112 0
-109 -120 0
110 118 120 0
110 117 139 0
110 118 139 0
110 117 120 0
-110 -117 -118 0
-110 -120 -139 0
-136 152 0
-137 154 0
138 156 0
139 158 0
140 160 0
-141 162 0
-142 164 0
143 166 0
144 168 0
145 170 0
-146 172 0
-147 174 0
-148 176 0
149 178 0
